s td 36 15 50
b 1 1
b 2 32 35
b 3 4 9 41
b 4 15 20 49
b 5 14 43 48
b 6 2 3 11 12 14 19 20 23 25 34 36 42 47 49 50
b 7 3 8 11 12 14 19 20 23 25 34 36 42 47 49 50
b 8 3 4 8 11 12 14 19 20 23 34 36 42 47 49 50
b 9 3 4 8 12 14 19 20 34 36 42 44 47 49 50
b 10 3 4 8 12 14 19 29 34 36 42 44 47 50
b 11 14 19 22 29 34 44 47 50
b 12 17 19 22 29 44
b 13 3 4 8 12 29 30 36 42 50
b 14 3 4 12 29 30 32 42
b 15 3 4 29 32 41 42
b 16 3 8 11 12 14 20 23 25 34 42 46 47 49 50
b 17 3 8 12 14 20 23 34 42 45 46 47 49 50
b 18 3 8 12 14 20 23 34 39 42 45 47 50
b 19 3 12 14 20 23 34 37 39 45 47 50
b 20 3 10 12 23 34 37 39 45 47
b 21 10 12 23 26 34 37 39 47
b 22 6 10 12 26 34
b 23 2 3 7 11 12 14 19 23 25 34 36 42 47 49 50
b 24 2 3 7 11 12 14 23 25 34 36 42 43 47 49
b 25 2 3 7 11 12 23 25 27 36 42 43 47 49
b 26 2 3 7 11 12 18 23 25 27 36 43 47
b 27 2 3 5 18 25 36 43
b 28 5 18 21 36 43
b 29 2 11 18 23 27 31 36 47
b 30 2 11 23 24 27 31
b 31 7 27 38 42
b 32 7 11 12 14 19 23 25 36 40 49 50
b 33 11 12 14 19 25 33 36 40 49 50
b 34 12 14 19 25 28 33 40 49 50
b 35 13 14 28 50
b 36 12 16 19 25 28 33 49
1 2
2 14
3 15
4 6
5 24
6 7
6 23
7 8
7 16
8 9
9 10
10 11
10 13
11 12
13 14
14 15
16 17
17 18
18 19
19 20
20 21
21 22
23 24
23 32
24 25
25 26
25 31
26 27
26 29
27 28
29 30
32 33
33 34
34 35
34 36
